15
36
36
36
-19 -5 -39 -36 -22 -37 -5 -11 -31 -30 -14 -4 -20 -32 -8
-16 -6 -29 -36 -6 -16 -21 -15 -24 -37 -18 -4 -9 -18 -34
31 29 35 14 22 34 6 35 19 18 36 23 8 13 11
22 13 25 36 23 12 8 12 27 3 2 25 9 6 5
7 13 4 36 32 8 36 14 3 33 32 14 20 16 10
